CMPL model generation - running

CMPL version: 1.11.0
Authors: Thomas Schleiff, Mike Steglich
Distributed under the GPLv3 

create model instance ...
write model instance ...
CMPL model generation - finished

Solver - running


Welcome to IBM(R) ILOG(R) CPLEX(R) Interactive Optimizer 12.7.1.0
  with Simplex, Mixed Integer & Barrier Optimizers
5725-A06 5725-A29 5724-Y48 5724-Y49 5724-Y54 5724-Y55 5655-Y21
Copyright IBM Corp. 1988, 2017.  All Rights Reserved.

Type 'help' for a list of available commands.
Type 'help' followed by a command name for more
information on commands.

CPLEX> Specified objective sense: MINIMIZE
Selected objective  name:  line[1]
Selected RHS        name:  RHS
Selected bound      name:  BOUND
Problem '/tmp/cmpl.T24346.mps' read.
Read time = 0.09 sec. (10.13 ticks)
CPLEX> CPXPARAM_Read_APIEncoding                        "UTF-8"
Tried aggregator 3 times.
MIP Presolve eliminated 23935 rows and 37446 columns.
MIP Presolve modified 425 coefficients.
Aggregator did 820 substitutions.
Reduced MIP has 3167 rows, 4189 columns, and 12387 nonzeros.
Reduced MIP has 3979 binaries, 0 generals, 0 SOSs, and 0 indicators.
Presolve time = 0.06 sec. (50.41 ticks)
Found incumbent of value 1175.760532 after 0.13 sec. (80.17 ticks)
Probing fixed 22 vars, tightened 0 bounds.
Probing time = 0.01 sec. (5.45 ticks)
Tried aggregator 1 time.
MIP Presolve eliminated 0 rows and 22 columns.
MIP Presolve modified 130 coefficients.
Reduced MIP has 3167 rows, 4167 columns, and 12343 nonzeros.
Reduced MIP has 4167 binaries, 0 generals, 0 SOSs, and 0 indicators.
Presolve time = 0.01 sec. (10.54 ticks)
Probing time = 0.01 sec. (2.84 ticks)
Clique table members: 7604.
MIP emphasis: balance optimality and feasibility.
MIP search method: dynamic search.
Parallel mode: none, using 1 thread.
Root relaxation solution time = 0.01 sec. (7.38 ticks)

        Nodes                                         Cuts/
   Node  Left     Objective  IInf  Best Integer    Best Bound    ItCnt     Gap

*     0+    0                         1175.7605      -24.0697           102.05%
      0     0      327.4491     6     1175.7605      327.4491      232   72.15%
*     0+    0                          327.5863      327.4491             0.04%
      0     0      327.5394     2      327.5863      Cuts: 13      238    0.01%
*     0+    0                          327.5852      327.5394             0.01%
*     0     0      integral     0      327.5423       Cuts: 6      243    0.00%
      0     0        cutoff            327.5423      327.5423      243    0.00%
Elapsed time = 0.21 sec. (141.43 ticks, tree = 0.01 MB, solutions = 4)

GUB cover cuts applied:  1
Clique cuts applied:  1
Cover cuts applied:  11
Gomory fractional cuts applied:  6

Root node processing (before b&c):
  Real time             =    0.22 sec. (143.54 ticks)
Sequential b&c:
  Real time             =    0.00 sec. (0.00 ticks)
                          ------------
Total (root+branch&cut) =    0.22 sec. (143.54 ticks)

Solution pool: 4 solutions saved.

MIP - Integer optimal solution:  Objective =  3.2754232700e+02
Solution time =    0.22 sec.  Iterations = 243  Nodes = 0
Deterministic time = 143.66 ticks  (659.23 ticks/sec)

CPLEX> Incumbent solution written to file '/tmp/cmpl.T24346.gsol'.
CPLEX> 
CMPL: Time used for model generation: 1 seconds
CMPL: Time used for solving the model: 1 seconds


Solution written to ASCII file: results/output_generated_conf_0.6/2017-10-02-5/fair-nonlinear.sol

Solver - finished
